(set-logic HORN)
(set-info :source |
    Benchmark: C_VC
    Output by Princess (http://www.philipp.ruemmer.org/princess.shtml)
|)
(set-info :status sat)
(declare-heap Heap Addr HeapObject
 defObj
 ((HeapObject 0)) (
  (
   (O_Int (getInt Int))
   (O_UInt (getUInt Int))
   (O_Addr (getAddr Addr))
   (defObj)
  )
))
(declare-fun inv_main27 (Heap Int Int Int AddrRange Int) Bool)
(declare-fun inv_main3 (Heap Int) Bool)
(declare-fun inv_main35 (Heap Int Int Int AddrRange) Bool)
(assert (forall ((var0 Int) (var1 Heap)) (or (not (= var1 emptyHeap)) (inv_main3 var1 var0))))
(assert (forall ((var0 Int) (var1 Int) (var2 AddrRange) (var3 AddrRange) (var4 Int) (var5 Int) (var6 Int) (var7 Int) (var8 Int) (var9 Int) (var10 Heap) (var11 Heap) (var12 Int) (var13 Int) (var14 AddrRange) (var15 Int) (var16 Int) (var17 Int) (var18 Heap)) (or (not (and (inv_main27 var18 var17 var16 var15 var14 var13) (and (and (and (not (= var12 0)) (and (and (and (and (and (and (= var11 var10) (= var9 (+ var8 1))) (= var7 var6)) (= var5 var4)) (= var3 var2)) (= var1 var0)) (or (and (and (<= 0 (+ var0 (- 1))) (<= 0 (+ (+ 10000 (* (- 1) var0)) (- 1)))) (= var12 1)) (and (not (and (<= 0 (+ var0 (- 1))) (<= 0 (+ (+ 10000 (* (- 1) var0)) (- 1))))) (= var12 0))))) (<= 0 (+ (+ var4 (* (- 1) (+ var8 1))) (- 1)))) (and (and (is-O_Int (read var18 (nthAddrRange var14 var17))) (is-O_Int (read var18 (nthAddrRange var14 var17)))) (and (and (and (and (= var10 (write var18 (nthAddrRange var14 var17) (O_Int (+ (+ var17 var16) var13)))) (= var8 var17)) (= var6 var16)) (= var4 var15)) (= var2 var14)))))) (inv_main27 var11 var9 var7 var5 var3 var1))))
(assert (forall ((var0 Int) (var1 Int) (var2 Heap) (var3 Int) (var4 Int) (var5 Int) (var6 Int) (var7 Int) (var8 AddrRange) (var9 Int) (var10 Int) (var11 Int) (var12 Int) (var13 Heap) (var14 Int) (var15 Int) (var16 Int) (var17 AddrRange) (var18 AddrRange) (var19 Int) (var20 Int) (var21 Int) (var22 Int) (var23 Int) (var24 Heap) (var25 Heap) (var26 Int) (var27 Int) (var28 Heap)) (or (not (and (inv_main3 var28 var27) (and (and (and (not (= var26 0)) (and (and (and (and (and (and (= var25 var24) (= var23 1)) (= var22 var21)) (= var20 var19)) (= var18 var17)) (= var16 var15)) (or (and (and (<= 0 (+ var15 (- 1))) (<= 0 (+ (+ 10000 (* (- 1) var15)) (- 1)))) (= var26 1)) (and (not (and (<= 0 (+ var15 (- 1))) (<= 0 (+ (+ 10000 (* (- 1) var15)) (- 1))))) (= var26 0))))) (<= 0 (+ (+ var19 (- 1)) (- 1)))) (and (and (and (not (= var14 0)) (and (and (and (and (and (= var24 var13) (= var12 var11)) (= var21 var10)) (= var19 var9)) (= var17 var8)) (or (and (and (<= 0 (+ var10 (- 1))) (<= 0 (+ (+ 10000 (* (- 1) var10)) (- 1)))) (= var14 1)) (and (not (and (<= 0 (+ var10 (- 1))) (<= 0 (+ (+ 10000 (* (- 1) var10)) (- 1))))) (= var14 0))))) (and (and (and (and (= var13 (newBatchHeap (batchAlloc emptyHeap (O_Int var7) var6))) (= var11 var5)) (= var10 var4)) (= var9 var6)) (= var8 (newAddrRange (batchAlloc emptyHeap (O_Int var7) var6))))) (and (not (= var3 0)) (and (and (and (and (= var2 var28) (= var5 var27)) (= var4 var1)) (= var6 var0)) (or (and (<= 0 (+ (+ 100000 (* (- 1) var0)) (- 1))) (= var3 1)) (and (not (<= 0 (+ (+ 100000 (* (- 1) var0)) (- 1)))) (= var3 0))))))))) (inv_main27 var25 var23 var22 var20 var18 var16))))
(assert (forall ((var0 AddrRange) (var1 Int) (var2 Int) (var3 Int) (var4 Heap)) (or (not (and (inv_main35 var4 var3 var2 var1 var0) (and (<= 0 (+ (+ var1 (* (- 1) (+ var3 1))) (- 1))) (is-O_Int (read var4 (nthAddrRange var0 var3)))))) (inv_main35 var4 (+ var3 1) var2 var1 var0))))
(assert (forall ((var0 AddrRange) (var1 Int) (var2 Heap) (var3 Int) (var4 Int) (var5 Int) (var6 AddrRange) (var7 Int) (var8 Int) (var9 Int) (var10 Heap)) (or (not (and (inv_main27 var10 var9 var8 var7 var6 var5) (and (and (<= 0 (+ (+ var4 (- 1)) (- 1))) (not (<= 0 (+ (+ var4 (* (- 1) (+ var3 1))) (- 1))))) (and (and (is-O_Int (read var10 (nthAddrRange var6 var9))) (is-O_Int (read var10 (nthAddrRange var6 var9)))) (and (and (and (and (= var2 (write var10 (nthAddrRange var6 var9) (O_Int (+ (+ var9 var8) var5)))) (= var3 var9)) (= var1 var8)) (= var4 var7)) (= var0 var6)))))) (inv_main35 var2 1 var1 var4 var0))))
(assert (forall ((var0 Int) (var1 Int) (var2 Heap) (var3 Int) (var4 Int) (var5 Int) (var6 Int) (var7 Int) (var8 AddrRange) (var9 AddrRange) (var10 Int) (var11 Int) (var12 Int) (var13 Int) (var14 Int) (var15 Heap) (var16 Heap) (var17 Int) (var18 Int) (var19 Int) (var20 Heap)) (or (not (and (inv_main3 var20 var19) (and (and (<= 0 (+ (+ var18 (- 1)) (- 1))) (not (<= 0 (+ (+ var18 (- 1)) (- 1))))) (and (and (and (not (= var17 0)) (and (and (and (and (and (= var16 var15) (= var14 var13)) (= var12 var11)) (= var18 var10)) (= var9 var8)) (or (and (and (<= 0 (+ var11 (- 1))) (<= 0 (+ (+ 10000 (* (- 1) var11)) (- 1)))) (= var17 1)) (and (not (and (<= 0 (+ var11 (- 1))) (<= 0 (+ (+ 10000 (* (- 1) var11)) (- 1))))) (= var17 0))))) (and (and (and (and (= var15 (newBatchHeap (batchAlloc emptyHeap (O_Int var7) var6))) (= var13 var5)) (= var11 var4)) (= var10 var6)) (= var8 (newAddrRange (batchAlloc emptyHeap (O_Int var7) var6))))) (and (not (= var3 0)) (and (and (and (and (= var2 var20) (= var5 var19)) (= var4 var1)) (= var6 var0)) (or (and (<= 0 (+ (+ 100000 (* (- 1) var0)) (- 1))) (= var3 1)) (and (not (<= 0 (+ (+ 100000 (* (- 1) var0)) (- 1)))) (= var3 0))))))))) (inv_main35 var16 1 var12 var18 var9))))
(assert (forall ((var0 Int) (var1 AddrRange) (var2 Int) (var3 Int) (var4 Int) (var5 Heap)) (not (and (inv_main27 var5 var4 var3 var2 var1 var0) (not (is-O_Int (read var5 (nthAddrRange var1 var4))))))))
(assert (forall ((var0 Int) (var1 AddrRange) (var2 Int) (var3 Int) (var4 Int) (var5 Heap)) (not (and (inv_main27 var5 var4 var3 var2 var1 var0) (and (is-O_Int (read var5 (nthAddrRange var1 var4))) (not (within var1 (nthAddrRange var1 var4))))))))
(assert (forall ((var0 Int) (var1 AddrRange) (var2 Int) (var3 Int) (var4 Int) (var5 Heap)) (not (and (inv_main27 var5 var4 var3 var2 var1 var0) (and (is-O_Int (read var5 (nthAddrRange var1 var4))) (not (is-O_Int (read var5 (nthAddrRange var1 var4)))))))))
(assert (forall ((var0 AddrRange) (var1 Int) (var2 Int) (var3 Int) (var4 Heap)) (not (and (inv_main35 var4 var3 var2 var1 var0) (not (is-O_Int (read var4 (nthAddrRange var0 var3))))))))
(assert (forall ((var0 AddrRange) (var1 Int) (var2 Int) (var3 Int) (var4 Heap)) (not (and (inv_main35 var4 var3 var2 var1 var0) (not (within var0 (nthAddrRange var0 var3)))))))
(assert (forall ((var0 AddrRange) (var1 Int) (var2 Int) (var3 Int) (var4 Heap)) (not (and (inv_main35 var4 var3 var2 var1 var0) (not (is-O_Int (read var4 (nthAddrRange var0 var3))))))))
(assert (forall ((var0 AddrRange) (var1 Int) (var2 Int) (var3 Int) (var4 Heap)) (not (and (inv_main35 var4 var3 var2 var1 var0) (and (is-O_Int (read var4 (nthAddrRange var0 var3))) (not (within var0 (nthAddrRange var0 var3))))))))
(assert (forall ((var0 AddrRange) (var1 Int) (var2 Int) (var3 Int) (var4 Heap)) (not (and (inv_main35 var4 var3 var2 var1 var0) (and (is-O_Int (read var4 (nthAddrRange var0 var3))) (not (<= 0 (+ (getInt (read var4 (nthAddrRange var0 var3))) (* (- 1) (+ var3 2))))))))))
(check-sat)
